; Benchmark for LTL-sketching problem
(set-logic QF_UF)
(set-info :status unknown)
(declare-fun z_0_0 () Bool)
(declare-fun z_0_1 () Bool)
(declare-fun z_0_8 () Bool)
(declare-fun z_0_20 () Bool)
(declare-fun z_0_31 () Bool)
(declare-fun z_0_32 () Bool)
(declare-fun z_0_36 () Bool)
(declare-fun z_0_42 () Bool)
(declare-fun z_0_49 () Bool)
(declare-fun z_0_52 () Bool)
(declare-fun z_0_57 () Bool)
(declare-fun x_0_G () Bool)
(declare-fun x_0_F () Bool)
(declare-fun x_0_X () Bool)
(declare-fun x_0_! () Bool)
(declare-fun z_1_0 () Bool)
(declare-fun z_1_1 () Bool)
(declare-fun z_1_2 () Bool)
(declare-fun z_1_7 () Bool)
(declare-fun z_1_6 () Bool)
(declare-fun z_1_5 () Bool)
(declare-fun z_1_4 () Bool)
(declare-fun z_1_3 () Bool)
(declare-fun z_0_2 () Bool)
(declare-fun z_0_3 () Bool)
(declare-fun z_0_4 () Bool)
(declare-fun z_0_5 () Bool)
(declare-fun z_0_6 () Bool)
(declare-fun z_0_7 () Bool)
(declare-fun z_1_8 () Bool)
(declare-fun z_1_9 () Bool)
(declare-fun z_1_19 () Bool)
(declare-fun z_1_18 () Bool)
(declare-fun z_1_17 () Bool)
(declare-fun z_1_16 () Bool)
(declare-fun z_1_15 () Bool)
(declare-fun z_1_14 () Bool)
(declare-fun z_1_13 () Bool)
(declare-fun z_1_12 () Bool)
(declare-fun z_1_11 () Bool)
(declare-fun z_1_10 () Bool)
(declare-fun z_0_9 () Bool)
(declare-fun z_0_10 () Bool)
(declare-fun z_0_11 () Bool)
(declare-fun z_0_12 () Bool)
(declare-fun z_0_13 () Bool)
(declare-fun z_0_14 () Bool)
(declare-fun z_0_15 () Bool)
(declare-fun z_0_16 () Bool)
(declare-fun z_0_17 () Bool)
(declare-fun z_0_18 () Bool)
(declare-fun z_0_19 () Bool)
(declare-fun z_1_20 () Bool)
(declare-fun z_1_21 () Bool)
(declare-fun z_1_30 () Bool)
(declare-fun z_1_29 () Bool)
(declare-fun z_1_28 () Bool)
(declare-fun z_1_27 () Bool)
(declare-fun z_1_26 () Bool)
(declare-fun z_1_25 () Bool)
(declare-fun z_1_24 () Bool)
(declare-fun z_1_23 () Bool)
(declare-fun z_1_22 () Bool)
(declare-fun z_0_21 () Bool)
(declare-fun z_0_22 () Bool)
(declare-fun z_0_23 () Bool)
(declare-fun z_0_24 () Bool)
(declare-fun z_0_25 () Bool)
(declare-fun z_0_26 () Bool)
(declare-fun z_0_27 () Bool)
(declare-fun z_0_28 () Bool)
(declare-fun z_0_29 () Bool)
(declare-fun z_0_30 () Bool)
(declare-fun z_1_31 () Bool)
(declare-fun z_1_32 () Bool)
(declare-fun z_1_33 () Bool)
(declare-fun z_1_35 () Bool)
(declare-fun z_1_34 () Bool)
(declare-fun z_0_33 () Bool)
(declare-fun z_0_34 () Bool)
(declare-fun z_0_35 () Bool)
(declare-fun z_1_36 () Bool)
(declare-fun z_1_37 () Bool)
(declare-fun z_1_41 () Bool)
(declare-fun z_1_40 () Bool)
(declare-fun z_1_39 () Bool)
(declare-fun z_1_38 () Bool)
(declare-fun z_0_37 () Bool)
(declare-fun z_0_38 () Bool)
(declare-fun z_0_39 () Bool)
(declare-fun z_0_40 () Bool)
(declare-fun z_0_41 () Bool)
(declare-fun z_1_42 () Bool)
(declare-fun z_1_43 () Bool)
(declare-fun z_1_48 () Bool)
(declare-fun z_1_47 () Bool)
(declare-fun z_1_46 () Bool)
(declare-fun z_1_45 () Bool)
(declare-fun z_1_44 () Bool)
(declare-fun z_0_43 () Bool)
(declare-fun z_0_44 () Bool)
(declare-fun z_0_45 () Bool)
(declare-fun z_0_46 () Bool)
(declare-fun z_0_47 () Bool)
(declare-fun z_0_48 () Bool)
(declare-fun z_1_49 () Bool)
(declare-fun z_1_50 () Bool)
(declare-fun z_1_51 () Bool)
(declare-fun z_0_50 () Bool)
(declare-fun z_0_51 () Bool)
(declare-fun z_1_52 () Bool)
(declare-fun z_1_53 () Bool)
(declare-fun z_1_56 () Bool)
(declare-fun z_1_55 () Bool)
(declare-fun z_1_54 () Bool)
(declare-fun z_0_53 () Bool)
(declare-fun z_0_54 () Bool)
(declare-fun z_0_55 () Bool)
(declare-fun z_0_56 () Bool)
(declare-fun z_1_57 () Bool)
(declare-fun z_1_58 () Bool)
(declare-fun z_1_67 () Bool)
(declare-fun z_1_66 () Bool)
(declare-fun z_1_65 () Bool)
(declare-fun z_1_64 () Bool)
(declare-fun z_1_63 () Bool)
(declare-fun z_1_62 () Bool)
(declare-fun z_1_61 () Bool)
(declare-fun z_1_60 () Bool)
(declare-fun z_1_59 () Bool)
(declare-fun z_0_58 () Bool)
(declare-fun z_0_59 () Bool)
(declare-fun z_0_60 () Bool)
(declare-fun z_0_61 () Bool)
(declare-fun z_0_62 () Bool)
(declare-fun z_0_63 () Bool)
(declare-fun z_0_64 () Bool)
(declare-fun z_0_65 () Bool)
(declare-fun z_0_66 () Bool)
(declare-fun z_0_67 () Bool)
(declare-fun z_3_0 () Bool)
(declare-fun z_3_1 () Bool)
(declare-fun z_3_2 () Bool)
(declare-fun z_3_3 () Bool)
(declare-fun z_3_4 () Bool)
(declare-fun z_3_5 () Bool)
(declare-fun z_3_6 () Bool)
(declare-fun z_3_7 () Bool)
(declare-fun z_3_8 () Bool)
(declare-fun z_3_9 () Bool)
(declare-fun z_3_10 () Bool)
(declare-fun z_3_11 () Bool)
(declare-fun z_3_12 () Bool)
(declare-fun z_3_13 () Bool)
(declare-fun z_3_14 () Bool)
(declare-fun z_3_15 () Bool)
(declare-fun z_3_16 () Bool)
(declare-fun z_3_17 () Bool)
(declare-fun z_3_18 () Bool)
(declare-fun z_3_19 () Bool)
(declare-fun z_3_20 () Bool)
(declare-fun z_3_21 () Bool)
(declare-fun z_3_22 () Bool)
(declare-fun z_3_23 () Bool)
(declare-fun z_3_24 () Bool)
(declare-fun z_3_25 () Bool)
(declare-fun z_3_26 () Bool)
(declare-fun z_3_27 () Bool)
(declare-fun z_3_28 () Bool)
(declare-fun z_3_29 () Bool)
(declare-fun z_3_30 () Bool)
(declare-fun z_3_31 () Bool)
(declare-fun z_3_32 () Bool)
(declare-fun z_3_33 () Bool)
(declare-fun z_3_34 () Bool)
(declare-fun z_3_35 () Bool)
(declare-fun z_3_36 () Bool)
(declare-fun z_3_37 () Bool)
(declare-fun z_3_38 () Bool)
(declare-fun z_3_39 () Bool)
(declare-fun z_3_40 () Bool)
(declare-fun z_3_41 () Bool)
(declare-fun z_3_42 () Bool)
(declare-fun z_3_43 () Bool)
(declare-fun z_3_44 () Bool)
(declare-fun z_3_45 () Bool)
(declare-fun z_3_46 () Bool)
(declare-fun z_3_47 () Bool)
(declare-fun z_3_48 () Bool)
(declare-fun z_3_49 () Bool)
(declare-fun z_3_50 () Bool)
(declare-fun z_3_51 () Bool)
(declare-fun z_3_52 () Bool)
(declare-fun z_3_53 () Bool)
(declare-fun z_3_54 () Bool)
(declare-fun z_3_55 () Bool)
(declare-fun z_3_56 () Bool)
(declare-fun z_3_57 () Bool)
(declare-fun z_3_58 () Bool)
(declare-fun z_3_59 () Bool)
(declare-fun z_3_60 () Bool)
(declare-fun z_3_61 () Bool)
(declare-fun z_3_62 () Bool)
(declare-fun z_3_63 () Bool)
(declare-fun z_3_64 () Bool)
(declare-fun z_3_65 () Bool)
(declare-fun z_3_66 () Bool)
(declare-fun z_3_67 () Bool)
(declare-fun x_3_p () Bool)
(declare-fun x_3_-> () Bool)
(declare-fun x_3_U () Bool)
(declare-fun x_3_v () Bool)
(declare-fun x_3_& () Bool)
(declare-fun x_3_X () Bool)
(declare-fun x_3_! () Bool)
(declare-fun x_3_F () Bool)
(declare-fun x_3_G () Bool)
(assert
 z_0_0)
(assert
 (not z_0_1))
(assert
 (not z_0_8))
(assert
 (not z_0_20))
(assert
 (not z_0_31))
(assert
 (not z_0_32))
(assert
 (not z_0_36))
(assert
 (not z_0_42))
(assert
 (not z_0_49))
(assert
 (not z_0_52))
(assert
 (not z_0_57))
(assert
 (or x_0_! x_0_X x_0_F x_0_G))
(assert
 (let (($x15 (not x_0_G)))
 (let (($x13 (not x_0_F)))
 (let (($x19 (or $x13 $x15)))
 (let (($x11 (not x_0_X)))
 (let (($x18 (or $x11 $x15)))
 (let (($x17 (or $x11 $x13)))
 (let (($x10 (not x_0_!)))
 (let (($x16 (or $x10 $x15)))
 (let (($x14 (or $x10 $x13)))
 (let (($x12 (or $x10 $x11)))
 (and $x12 $x14 $x16 $x17 $x18 $x19))))))))))))
(assert
 (=> x_0_! (= z_0_0 (not z_1_0))))
(assert
 (let (($x47 (= z_0_0 z_1_0)))
 (=> x_0_X $x47)))
(assert
 (=> x_0_F (= z_0_0 (or z_1_0))))
(assert
 (=> x_0_G (= z_0_0 (and z_1_0))))
(assert
 (=> x_0_! (= z_0_1 (not z_1_1))))
(assert
 (let (($x67 (= z_0_1 z_1_2)))
 (=> x_0_X $x67)))
(assert
 (let (($x76 (= z_0_1 (or z_1_1 z_1_2 z_1_3 z_1_4 z_1_5 z_1_6 z_1_7))))
 (=> x_0_F $x76)))
(assert
 (let (($x80 (= z_0_1 (and z_1_1 z_1_2 z_1_3 z_1_4 z_1_5 z_1_6 z_1_7))))
 (=> x_0_G $x80)))
(assert
 (=> x_0_! (= z_0_2 (not z_1_2))))
(assert
 (let (($x90 (= z_0_2 z_1_3)))
 (=> x_0_X $x90)))
(assert
 (let (($x94 (= z_0_2 (or z_1_2 z_1_3 z_1_4 z_1_5 z_1_6 z_1_7))))
 (=> x_0_F $x94)))
(assert
 (let (($x98 (= z_0_2 (and z_1_2 z_1_3 z_1_4 z_1_5 z_1_6 z_1_7))))
 (=> x_0_G $x98)))
(assert
 (=> x_0_! (= z_0_3 (not z_1_3))))
(assert
 (let (($x108 (= z_0_3 z_1_4)))
 (=> x_0_X $x108)))
(assert
 (let (($x111 (or z_1_3 z_1_4 z_1_5 z_1_6 z_1_7)))
 (let (($x112 (= z_0_3 $x111)))
 (=> x_0_F $x112))))
(assert
 (let (($x116 (= z_0_3 (and z_1_3 z_1_4 z_1_5 z_1_6 z_1_7))))
 (=> x_0_G $x116)))
(assert
 (=> x_0_! (= z_0_4 (not z_1_4))))
(assert
 (let (($x126 (= z_0_4 z_1_5)))
 (=> x_0_X $x126)))
(assert
 (=> x_0_F (= z_0_4 (or z_1_4 z_1_5 z_1_6 z_1_7 z_1_3))))
(assert
 (let (($x135 (= z_0_4 (and z_1_4 z_1_5 z_1_6 z_1_7 z_1_3))))
 (=> x_0_G $x135)))
(assert
 (=> x_0_! (= z_0_5 (not z_1_5))))
(assert
 (let (($x145 (= z_0_5 z_1_6)))
 (=> x_0_X $x145)))
(assert
 (=> x_0_F (= z_0_5 (or z_1_5 z_1_6 z_1_7 z_1_3 z_1_4))))
(assert
 (let (($x154 (= z_0_5 (and z_1_5 z_1_6 z_1_7 z_1_3 z_1_4))))
 (=> x_0_G $x154)))
(assert
 (=> x_0_! (= z_0_6 (not z_1_6))))
(assert
 (let (($x164 (= z_0_6 z_1_7)))
 (=> x_0_X $x164)))
(assert
 (=> x_0_F (= z_0_6 (or z_1_6 z_1_7 z_1_3 z_1_4 z_1_5))))
(assert
 (let (($x173 (= z_0_6 (and z_1_6 z_1_7 z_1_3 z_1_4 z_1_5))))
 (=> x_0_G $x173)))
(assert
 (=> x_0_! (= z_0_7 (not z_1_7))))
(assert
 (let (($x183 (= z_0_7 z_1_3)))
 (=> x_0_X $x183)))
(assert
 (=> x_0_F (= z_0_7 (or z_1_7 z_1_3 z_1_4 z_1_5 z_1_6))))
(assert
 (let (($x192 (= z_0_7 (and z_1_7 z_1_3 z_1_4 z_1_5 z_1_6))))
 (=> x_0_G $x192)))
(assert
 (=> x_0_! (= z_0_8 (not z_1_8))))
(assert
 (let (($x204 (= z_0_8 z_1_9)))
 (=> x_0_X $x204)))
(assert
 (let (($x217 (or z_1_8 z_1_9 z_1_10 z_1_11 z_1_12 z_1_13 z_1_14 z_1_15 z_1_16 z_1_17 z_1_18 z_1_19)))
 (let (($x218 (= z_0_8 $x217)))
 (=> x_0_F $x218))))
(assert
 (let (($x221 (and z_1_8 z_1_9 z_1_10 z_1_11 z_1_12 z_1_13 z_1_14 z_1_15 z_1_16 z_1_17 z_1_18 z_1_19)))
 (let (($x222 (= z_0_8 $x221)))
 (=> x_0_G $x222))))
(assert
 (=> x_0_! (= z_0_9 (not z_1_9))))
(assert
 (let (($x232 (= z_0_9 z_1_10)))
 (=> x_0_X $x232)))
(assert
 (let (($x235 (or z_1_9 z_1_10 z_1_11 z_1_12 z_1_13 z_1_14 z_1_15 z_1_16 z_1_17 z_1_18 z_1_19)))
 (let (($x236 (= z_0_9 $x235)))
 (=> x_0_F $x236))))
(assert
 (let (($x239 (and z_1_9 z_1_10 z_1_11 z_1_12 z_1_13 z_1_14 z_1_15 z_1_16 z_1_17 z_1_18 z_1_19)))
 (let (($x240 (= z_0_9 $x239)))
 (=> x_0_G $x240))))
(assert
 (=> x_0_! (= z_0_10 (not z_1_10))))
(assert
 (let (($x250 (= z_0_10 z_1_11)))
 (=> x_0_X $x250)))
(assert
 (let (($x253 (or z_1_10 z_1_11 z_1_12 z_1_13 z_1_14 z_1_15 z_1_16 z_1_17 z_1_18 z_1_19)))
 (let (($x254 (= z_0_10 $x253)))
 (=> x_0_F $x254))))
(assert
 (let (($x257 (and z_1_10 z_1_11 z_1_12 z_1_13 z_1_14 z_1_15 z_1_16 z_1_17 z_1_18 z_1_19)))
 (let (($x258 (= z_0_10 $x257)))
 (=> x_0_G $x258))))
(assert
 (=> x_0_! (= z_0_11 (not z_1_11))))
(assert
 (let (($x268 (= z_0_11 z_1_12)))
 (=> x_0_X $x268)))
(assert
 (let (($x271 (or z_1_11 z_1_12 z_1_13 z_1_14 z_1_15 z_1_16 z_1_17 z_1_18 z_1_19)))
 (let (($x272 (= z_0_11 $x271)))
 (=> x_0_F $x272))))
(assert
 (let (($x275 (and z_1_11 z_1_12 z_1_13 z_1_14 z_1_15 z_1_16 z_1_17 z_1_18 z_1_19)))
 (let (($x276 (= z_0_11 $x275)))
 (=> x_0_G $x276))))
(assert
 (=> x_0_! (= z_0_12 (not z_1_12))))
(assert
 (let (($x286 (= z_0_12 z_1_13)))
 (=> x_0_X $x286)))
(assert
 (let (($x289 (or z_1_12 z_1_13 z_1_14 z_1_15 z_1_16 z_1_17 z_1_18 z_1_19)))
 (let (($x290 (= z_0_12 $x289)))
 (=> x_0_F $x290))))
(assert
 (let (($x293 (and z_1_12 z_1_13 z_1_14 z_1_15 z_1_16 z_1_17 z_1_18 z_1_19)))
 (let (($x294 (= z_0_12 $x293)))
 (=> x_0_G $x294))))
(assert
 (=> x_0_! (= z_0_13 (not z_1_13))))
(assert
 (let (($x304 (= z_0_13 z_1_14)))
 (=> x_0_X $x304)))
(assert
 (let (($x308 (= z_0_13 (or z_1_13 z_1_14 z_1_15 z_1_16 z_1_17 z_1_18 z_1_19))))
 (=> x_0_F $x308)))
(assert
 (let (($x312 (= z_0_13 (and z_1_13 z_1_14 z_1_15 z_1_16 z_1_17 z_1_18 z_1_19))))
 (=> x_0_G $x312)))
(assert
 (=> x_0_! (= z_0_14 (not z_1_14))))
(assert
 (let (($x322 (= z_0_14 z_1_15)))
 (=> x_0_X $x322)))
(assert
 (let (($x325 (or z_1_14 z_1_15 z_1_16 z_1_17 z_1_18 z_1_19)))
 (let (($x326 (= z_0_14 $x325)))
 (=> x_0_F $x326))))
(assert
 (let (($x330 (= z_0_14 (and z_1_14 z_1_15 z_1_16 z_1_17 z_1_18 z_1_19))))
 (=> x_0_G $x330)))
(assert
 (=> x_0_! (= z_0_15 (not z_1_15))))
(assert
 (let (($x340 (= z_0_15 z_1_16)))
 (=> x_0_X $x340)))
(assert
 (=> x_0_F (= z_0_15 (or z_1_15 z_1_16 z_1_17 z_1_18 z_1_19 z_1_14))))
(assert
 (let (($x349 (= z_0_15 (and z_1_15 z_1_16 z_1_17 z_1_18 z_1_19 z_1_14))))
 (=> x_0_G $x349)))
(assert
 (=> x_0_! (= z_0_16 (not z_1_16))))
(assert
 (let (($x359 (= z_0_16 z_1_17)))
 (=> x_0_X $x359)))
(assert
 (=> x_0_F (= z_0_16 (or z_1_16 z_1_17 z_1_18 z_1_19 z_1_14 z_1_15))))
(assert
 (let (($x368 (= z_0_16 (and z_1_16 z_1_17 z_1_18 z_1_19 z_1_14 z_1_15))))
 (=> x_0_G $x368)))
(assert
 (=> x_0_! (= z_0_17 (not z_1_17))))
(assert
 (let (($x378 (= z_0_17 z_1_18)))
 (=> x_0_X $x378)))
(assert
 (=> x_0_F (= z_0_17 (or z_1_17 z_1_18 z_1_19 z_1_14 z_1_15 z_1_16))))
(assert
 (let (($x387 (= z_0_17 (and z_1_17 z_1_18 z_1_19 z_1_14 z_1_15 z_1_16))))
 (=> x_0_G $x387)))
(assert
 (=> x_0_! (= z_0_18 (not z_1_18))))
(assert
 (let (($x397 (= z_0_18 z_1_19)))
 (=> x_0_X $x397)))
(assert
 (=> x_0_F (= z_0_18 (or z_1_18 z_1_19 z_1_14 z_1_15 z_1_16 z_1_17))))
(assert
 (let (($x406 (= z_0_18 (and z_1_18 z_1_19 z_1_14 z_1_15 z_1_16 z_1_17))))
 (=> x_0_G $x406)))
(assert
 (=> x_0_! (= z_0_19 (not z_1_19))))
(assert
 (let (($x416 (= z_0_19 z_1_14)))
 (=> x_0_X $x416)))
(assert
 (=> x_0_F (= z_0_19 (or z_1_19 z_1_14 z_1_15 z_1_16 z_1_17 z_1_18))))
(assert
 (let (($x425 (= z_0_19 (and z_1_19 z_1_14 z_1_15 z_1_16 z_1_17 z_1_18))))
 (=> x_0_G $x425)))
(assert
 (=> x_0_! (= z_0_20 (not z_1_20))))
(assert
 (let (($x437 (= z_0_20 z_1_21)))
 (=> x_0_X $x437)))
(assert
 (let (($x449 (or z_1_20 z_1_21 z_1_22 z_1_23 z_1_24 z_1_25 z_1_26 z_1_27 z_1_28 z_1_29 z_1_30)))
 (let (($x450 (= z_0_20 $x449)))
 (=> x_0_F $x450))))
(assert
 (let (($x453 (and z_1_20 z_1_21 z_1_22 z_1_23 z_1_24 z_1_25 z_1_26 z_1_27 z_1_28 z_1_29 z_1_30)))
 (let (($x454 (= z_0_20 $x453)))
 (=> x_0_G $x454))))
(assert
 (=> x_0_! (= z_0_21 (not z_1_21))))
(assert
 (let (($x464 (= z_0_21 z_1_22)))
 (=> x_0_X $x464)))
(assert
 (let (($x467 (or z_1_21 z_1_22 z_1_23 z_1_24 z_1_25 z_1_26 z_1_27 z_1_28 z_1_29 z_1_30)))
 (let (($x468 (= z_0_21 $x467)))
 (=> x_0_F $x468))))
(assert
 (let (($x471 (and z_1_21 z_1_22 z_1_23 z_1_24 z_1_25 z_1_26 z_1_27 z_1_28 z_1_29 z_1_30)))
 (let (($x472 (= z_0_21 $x471)))
 (=> x_0_G $x472))))
(assert
 (=> x_0_! (= z_0_22 (not z_1_22))))
(assert
 (let (($x482 (= z_0_22 z_1_23)))
 (=> x_0_X $x482)))
(assert
 (let (($x485 (or z_1_22 z_1_23 z_1_24 z_1_25 z_1_26 z_1_27 z_1_28 z_1_29 z_1_30)))
 (let (($x486 (= z_0_22 $x485)))
 (=> x_0_F $x486))))
(assert
 (let (($x489 (and z_1_22 z_1_23 z_1_24 z_1_25 z_1_26 z_1_27 z_1_28 z_1_29 z_1_30)))
 (let (($x490 (= z_0_22 $x489)))
 (=> x_0_G $x490))))
(assert
 (=> x_0_! (= z_0_23 (not z_1_23))))
(assert
 (let (($x500 (= z_0_23 z_1_24)))
 (=> x_0_X $x500)))
(assert
 (let (($x503 (or z_1_23 z_1_24 z_1_25 z_1_26 z_1_27 z_1_28 z_1_29 z_1_30)))
 (let (($x504 (= z_0_23 $x503)))
 (=> x_0_F $x504))))
(assert
 (let (($x507 (and z_1_23 z_1_24 z_1_25 z_1_26 z_1_27 z_1_28 z_1_29 z_1_30)))
 (let (($x508 (= z_0_23 $x507)))
 (=> x_0_G $x508))))
(assert
 (=> x_0_! (= z_0_24 (not z_1_24))))
(assert
 (let (($x518 (= z_0_24 z_1_25)))
 (=> x_0_X $x518)))
(assert
 (let (($x522 (= z_0_24 (or z_1_24 z_1_25 z_1_26 z_1_27 z_1_28 z_1_29 z_1_30))))
 (=> x_0_F $x522)))
(assert
 (let (($x526 (= z_0_24 (and z_1_24 z_1_25 z_1_26 z_1_27 z_1_28 z_1_29 z_1_30))))
 (=> x_0_G $x526)))
(assert
 (=> x_0_! (= z_0_25 (not z_1_25))))
(assert
 (let (($x536 (= z_0_25 z_1_26)))
 (=> x_0_X $x536)))
(assert
 (let (($x540 (= z_0_25 (or z_1_25 z_1_26 z_1_27 z_1_28 z_1_29 z_1_30))))
 (=> x_0_F $x540)))
(assert
 (let (($x544 (= z_0_25 (and z_1_25 z_1_26 z_1_27 z_1_28 z_1_29 z_1_30))))
 (=> x_0_G $x544)))
(assert
 (=> x_0_! (= z_0_26 (not z_1_26))))
(assert
 (let (($x554 (= z_0_26 z_1_27)))
 (=> x_0_X $x554)))
(assert
 (let (($x557 (or z_1_26 z_1_27 z_1_28 z_1_29 z_1_30)))
 (let (($x558 (= z_0_26 $x557)))
 (=> x_0_F $x558))))
(assert
 (let (($x562 (= z_0_26 (and z_1_26 z_1_27 z_1_28 z_1_29 z_1_30))))
 (=> x_0_G $x562)))
(assert
 (=> x_0_! (= z_0_27 (not z_1_27))))
(assert
 (let (($x572 (= z_0_27 z_1_28)))
 (=> x_0_X $x572)))
(assert
 (=> x_0_F (= z_0_27 (or z_1_27 z_1_28 z_1_29 z_1_30 z_1_26))))
(assert
 (let (($x581 (= z_0_27 (and z_1_27 z_1_28 z_1_29 z_1_30 z_1_26))))
 (=> x_0_G $x581)))
(assert
 (=> x_0_! (= z_0_28 (not z_1_28))))
(assert
 (let (($x591 (= z_0_28 z_1_29)))
 (=> x_0_X $x591)))
(assert
 (=> x_0_F (= z_0_28 (or z_1_28 z_1_29 z_1_30 z_1_26 z_1_27))))
(assert
 (let (($x600 (= z_0_28 (and z_1_28 z_1_29 z_1_30 z_1_26 z_1_27))))
 (=> x_0_G $x600)))
(assert
 (=> x_0_! (= z_0_29 (not z_1_29))))
(assert
 (let (($x610 (= z_0_29 z_1_30)))
 (=> x_0_X $x610)))
(assert
 (=> x_0_F (= z_0_29 (or z_1_29 z_1_30 z_1_26 z_1_27 z_1_28))))
(assert
 (let (($x619 (= z_0_29 (and z_1_29 z_1_30 z_1_26 z_1_27 z_1_28))))
 (=> x_0_G $x619)))
(assert
 (=> x_0_! (= z_0_30 (not z_1_30))))
(assert
 (let (($x629 (= z_0_30 z_1_26)))
 (=> x_0_X $x629)))
(assert
 (=> x_0_F (= z_0_30 (or z_1_30 z_1_26 z_1_27 z_1_28 z_1_29))))
(assert
 (let (($x638 (= z_0_30 (and z_1_30 z_1_26 z_1_27 z_1_28 z_1_29))))
 (=> x_0_G $x638)))
(assert
 (=> x_0_! (= z_0_31 (not z_1_31))))
(assert
 (let (($x649 (= z_0_31 z_1_1)))
 (=> x_0_X $x649)))
(assert
 (let (($x653 (= z_0_31 (or z_1_31 z_1_1 z_1_2 z_1_3 z_1_4 z_1_5 z_1_6 z_1_7))))
 (=> x_0_F $x653)))
(assert
 (let (($x659 (= z_0_31 (and z_1_31 z_1_1 z_1_2 z_1_3 z_1_4 z_1_5 z_1_6 z_1_7))))
 (=> x_0_G $x659)))
(assert
 (=> x_0_! (= z_0_32 (not z_1_32))))
(assert
 (let (($x671 (= z_0_32 z_1_33)))
 (=> x_0_X $x671)))
(assert
 (let (($x676 (or z_1_32 z_1_33 z_1_34 z_1_35 z_1_6 z_1_7 z_1_3 z_1_4 z_1_5)))
 (=> x_0_F (= z_0_32 $x676))))
(assert
 (let (($x682 (and z_1_32 z_1_33 z_1_34 z_1_35 z_1_6 z_1_7 z_1_3 z_1_4 z_1_5)))
 (let (($x683 (= z_0_32 $x682)))
 (=> x_0_G $x683))))
(assert
 (=> x_0_! (= z_0_33 (not z_1_33))))
(assert
 (let (($x693 (= z_0_33 z_1_34)))
 (=> x_0_X $x693)))
(assert
 (let (($x697 (= z_0_33 (or z_1_33 z_1_34 z_1_35 z_1_6 z_1_7 z_1_3 z_1_4 z_1_5))))
 (=> x_0_F $x697)))
(assert
 (let (($x702 (and z_1_33 z_1_34 z_1_35 z_1_6 z_1_7 z_1_3 z_1_4 z_1_5)))
 (let (($x703 (= z_0_33 $x702)))
 (=> x_0_G $x703))))
(assert
 (=> x_0_! (= z_0_34 (not z_1_34))))
(assert
 (let (($x713 (= z_0_34 z_1_35)))
 (=> x_0_X $x713)))
(assert
 (let (($x717 (= z_0_34 (or z_1_34 z_1_35 z_1_6 z_1_7 z_1_3 z_1_4 z_1_5))))
 (=> x_0_F $x717)))
(assert
 (let (($x723 (= z_0_34 (and z_1_34 z_1_35 z_1_6 z_1_7 z_1_3 z_1_4 z_1_5))))
 (=> x_0_G $x723)))
(assert
 (=> x_0_! (= z_0_35 (not z_1_35))))
(assert
 (let (($x733 (= z_0_35 z_1_6)))
 (=> x_0_X $x733)))
(assert
 (=> x_0_F (= z_0_35 (or z_1_35 z_1_6 z_1_7 z_1_3 z_1_4 z_1_5))))
(assert
 (let (($x743 (= z_0_35 (and z_1_35 z_1_6 z_1_7 z_1_3 z_1_4 z_1_5))))
 (=> x_0_G $x743)))
(assert
 (=> x_0_! (= z_0_36 (not z_1_36))))
(assert
 (let (($x755 (= z_0_36 z_1_37)))
 (=> x_0_X $x755)))
(assert
 (let (($x763 (= z_0_36 (or z_1_36 z_1_37 z_1_38 z_1_39 z_1_40 z_1_41))))
 (=> x_0_F $x763)))
(assert
 (let (($x767 (= z_0_36 (and z_1_36 z_1_37 z_1_38 z_1_39 z_1_40 z_1_41))))
 (=> x_0_G $x767)))
(assert
 (=> x_0_! (= z_0_37 (not z_1_37))))
(assert
 (let (($x777 (= z_0_37 z_1_38)))
 (=> x_0_X $x777)))
(assert
 (let (($x780 (or z_1_37 z_1_38 z_1_39 z_1_40 z_1_41)))
 (let (($x781 (= z_0_37 $x780)))
 (=> x_0_F $x781))))
(assert
 (let (($x785 (= z_0_37 (and z_1_37 z_1_38 z_1_39 z_1_40 z_1_41))))
 (=> x_0_G $x785)))
(assert
 (=> x_0_! (= z_0_38 (not z_1_38))))
(assert
 (let (($x795 (= z_0_38 z_1_39)))
 (=> x_0_X $x795)))
(assert
 (=> x_0_F (= z_0_38 (or z_1_38 z_1_39 z_1_40 z_1_41 z_1_37))))
(assert
 (let (($x804 (= z_0_38 (and z_1_38 z_1_39 z_1_40 z_1_41 z_1_37))))
 (=> x_0_G $x804)))
(assert
 (=> x_0_! (= z_0_39 (not z_1_39))))
(assert
 (let (($x814 (= z_0_39 z_1_40)))
 (=> x_0_X $x814)))
(assert
 (=> x_0_F (= z_0_39 (or z_1_39 z_1_40 z_1_41 z_1_37 z_1_38))))
(assert
 (let (($x823 (= z_0_39 (and z_1_39 z_1_40 z_1_41 z_1_37 z_1_38))))
 (=> x_0_G $x823)))
(assert
 (=> x_0_! (= z_0_40 (not z_1_40))))
(assert
 (let (($x833 (= z_0_40 z_1_41)))
 (=> x_0_X $x833)))
(assert
 (=> x_0_F (= z_0_40 (or z_1_40 z_1_41 z_1_37 z_1_38 z_1_39))))
(assert
 (let (($x842 (= z_0_40 (and z_1_40 z_1_41 z_1_37 z_1_38 z_1_39))))
 (=> x_0_G $x842)))
(assert
 (=> x_0_! (= z_0_41 (not z_1_41))))
(assert
 (let (($x852 (= z_0_41 z_1_37)))
 (=> x_0_X $x852)))
(assert
 (=> x_0_F (= z_0_41 (or z_1_41 z_1_37 z_1_38 z_1_39 z_1_40))))
(assert
 (let (($x861 (= z_0_41 (and z_1_41 z_1_37 z_1_38 z_1_39 z_1_40))))
 (=> x_0_G $x861)))
(assert
 (=> x_0_! (= z_0_42 (not z_1_42))))
(assert
 (let (($x873 (= z_0_42 z_1_43)))
 (=> x_0_X $x873)))
(assert
 (let (($x882 (= z_0_42 (or z_1_42 z_1_43 z_1_44 z_1_45 z_1_46 z_1_47 z_1_48))))
 (=> x_0_F $x882)))
(assert
 (let (($x886 (= z_0_42 (and z_1_42 z_1_43 z_1_44 z_1_45 z_1_46 z_1_47 z_1_48))))
 (=> x_0_G $x886)))
(assert
 (=> x_0_! (= z_0_43 (not z_1_43))))
(assert
 (let (($x896 (= z_0_43 z_1_44)))
 (=> x_0_X $x896)))
(assert
 (let (($x900 (= z_0_43 (or z_1_43 z_1_44 z_1_45 z_1_46 z_1_47 z_1_48))))
 (=> x_0_F $x900)))
(assert
 (let (($x904 (= z_0_43 (and z_1_43 z_1_44 z_1_45 z_1_46 z_1_47 z_1_48))))
 (=> x_0_G $x904)))
(assert
 (=> x_0_! (= z_0_44 (not z_1_44))))
(assert
 (let (($x914 (= z_0_44 z_1_45)))
 (=> x_0_X $x914)))
(assert
 (let (($x918 (= z_0_44 (or z_1_44 z_1_45 z_1_46 z_1_47 z_1_48))))
 (=> x_0_F $x918)))
(assert
 (let (($x922 (= z_0_44 (and z_1_44 z_1_45 z_1_46 z_1_47 z_1_48))))
 (=> x_0_G $x922)))
(assert
 (=> x_0_! (= z_0_45 (not z_1_45))))
(assert
 (let (($x932 (= z_0_45 z_1_46)))
 (=> x_0_X $x932)))
(assert
 (let (($x935 (or z_1_45 z_1_46 z_1_47 z_1_48)))
 (let (($x936 (= z_0_45 $x935)))
 (=> x_0_F $x936))))
(assert
 (let (($x940 (= z_0_45 (and z_1_45 z_1_46 z_1_47 z_1_48))))
 (=> x_0_G $x940)))
(assert
 (=> x_0_! (= z_0_46 (not z_1_46))))
(assert
 (let (($x950 (= z_0_46 z_1_47)))
 (=> x_0_X $x950)))
(assert
 (=> x_0_F (= z_0_46 (or z_1_46 z_1_47 z_1_48 z_1_45))))
(assert
 (let (($x959 (= z_0_46 (and z_1_46 z_1_47 z_1_48 z_1_45))))
 (=> x_0_G $x959)))
(assert
 (=> x_0_! (= z_0_47 (not z_1_47))))
(assert
 (let (($x969 (= z_0_47 z_1_48)))
 (=> x_0_X $x969)))
(assert
 (=> x_0_F (= z_0_47 (or z_1_47 z_1_48 z_1_45 z_1_46))))
(assert
 (let (($x978 (= z_0_47 (and z_1_47 z_1_48 z_1_45 z_1_46))))
 (=> x_0_G $x978)))
(assert
 (=> x_0_! (= z_0_48 (not z_1_48))))
(assert
 (let (($x988 (= z_0_48 z_1_45)))
 (=> x_0_X $x988)))
(assert
 (=> x_0_F (= z_0_48 (or z_1_48 z_1_45 z_1_46 z_1_47))))
(assert
 (let (($x997 (= z_0_48 (and z_1_48 z_1_45 z_1_46 z_1_47))))
 (=> x_0_G $x997)))
(assert
 (=> x_0_! (= z_0_49 (not z_1_49))))
(assert
 (let (($x1009 (= z_0_49 z_1_50)))
 (=> x_0_X $x1009)))
(assert
 (let (($x1014 (= z_0_49 (or z_1_49 z_1_50 z_1_51 z_1_46 z_1_47 z_1_48 z_1_45))))
 (=> x_0_F $x1014)))
(assert
 (let (($x1020 (= z_0_49 (and z_1_49 z_1_50 z_1_51 z_1_46 z_1_47 z_1_48 z_1_45))))
 (=> x_0_G $x1020)))
(assert
 (=> x_0_! (= z_0_50 (not z_1_50))))
(assert
 (let (($x1030 (= z_0_50 z_1_51)))
 (=> x_0_X $x1030)))
(assert
 (=> x_0_F (= z_0_50 (or z_1_50 z_1_51 z_1_46 z_1_47 z_1_48 z_1_45))))
(assert
 (let (($x1040 (= z_0_50 (and z_1_50 z_1_51 z_1_46 z_1_47 z_1_48 z_1_45))))
 (=> x_0_G $x1040)))
(assert
 (=> x_0_! (= z_0_51 (not z_1_51))))
(assert
 (let (($x1050 (= z_0_51 z_1_46)))
 (=> x_0_X $x1050)))
(assert
 (=> x_0_F (= z_0_51 (or z_1_51 z_1_46 z_1_47 z_1_48 z_1_45))))
(assert
 (let (($x1060 (= z_0_51 (and z_1_51 z_1_46 z_1_47 z_1_48 z_1_45))))
 (=> x_0_G $x1060)))
(assert
 (=> x_0_! (= z_0_52 (not z_1_52))))
(assert
 (let (($x1072 (= z_0_52 z_1_53)))
 (=> x_0_X $x1072)))
(assert
 (let (($x1078 (or z_1_52 z_1_53 z_1_54 z_1_55 z_1_56 z_1_47 z_1_48 z_1_45 z_1_46)))
 (=> x_0_F (= z_0_52 $x1078))))
(assert
 (let (($x1084 (and z_1_52 z_1_53 z_1_54 z_1_55 z_1_56 z_1_47 z_1_48 z_1_45 z_1_46)))
 (let (($x1085 (= z_0_52 $x1084)))
 (=> x_0_G $x1085))))
(assert
 (=> x_0_! (= z_0_53 (not z_1_53))))
(assert
 (let (($x1095 (= z_0_53 z_1_54)))
 (=> x_0_X $x1095)))
(assert
 (let (($x1098 (or z_1_53 z_1_54 z_1_55 z_1_56 z_1_47 z_1_48 z_1_45 z_1_46)))
 (=> x_0_F (= z_0_53 $x1098))))
(assert
 (let (($x1104 (and z_1_53 z_1_54 z_1_55 z_1_56 z_1_47 z_1_48 z_1_45 z_1_46)))
 (let (($x1105 (= z_0_53 $x1104)))
 (=> x_0_G $x1105))))
(assert
 (=> x_0_! (= z_0_54 (not z_1_54))))
(assert
 (let (($x1115 (= z_0_54 z_1_55)))
 (=> x_0_X $x1115)))
(assert
 (let (($x1119 (= z_0_54 (or z_1_54 z_1_55 z_1_56 z_1_47 z_1_48 z_1_45 z_1_46))))
 (=> x_0_F $x1119)))
(assert
 (let (($x1125 (= z_0_54 (and z_1_54 z_1_55 z_1_56 z_1_47 z_1_48 z_1_45 z_1_46))))
 (=> x_0_G $x1125)))
(assert
 (=> x_0_! (= z_0_55 (not z_1_55))))
(assert
 (let (($x1135 (= z_0_55 z_1_56)))
 (=> x_0_X $x1135)))
(assert
 (=> x_0_F (= z_0_55 (or z_1_55 z_1_56 z_1_47 z_1_48 z_1_45 z_1_46))))
(assert
 (let (($x1145 (= z_0_55 (and z_1_55 z_1_56 z_1_47 z_1_48 z_1_45 z_1_46))))
 (=> x_0_G $x1145)))
(assert
 (=> x_0_! (= z_0_56 (not z_1_56))))
(assert
 (let (($x1155 (= z_0_56 z_1_47)))
 (=> x_0_X $x1155)))
(assert
 (=> x_0_F (= z_0_56 (or z_1_56 z_1_47 z_1_48 z_1_45 z_1_46))))
(assert
 (let (($x1165 (= z_0_56 (and z_1_56 z_1_47 z_1_48 z_1_45 z_1_46))))
 (=> x_0_G $x1165)))
(assert
 (=> x_0_! (= z_0_57 (not z_1_57))))
(assert
 (let (($x1177 (= z_0_57 z_1_58)))
 (=> x_0_X $x1177)))
(assert
 (let (($x1189 (or z_1_57 z_1_58 z_1_59 z_1_60 z_1_61 z_1_62 z_1_63 z_1_64 z_1_65 z_1_66 z_1_67)))
 (let (($x1190 (= z_0_57 $x1189)))
 (=> x_0_F $x1190))))
(assert
 (let (($x1193 (and z_1_57 z_1_58 z_1_59 z_1_60 z_1_61 z_1_62 z_1_63 z_1_64 z_1_65 z_1_66 z_1_67)))
 (let (($x1194 (= z_0_57 $x1193)))
 (=> x_0_G $x1194))))
(assert
 (=> x_0_! (= z_0_58 (not z_1_58))))
(assert
 (let (($x1204 (= z_0_58 z_1_59)))
 (=> x_0_X $x1204)))
(assert
 (let (($x1207 (or z_1_58 z_1_59 z_1_60 z_1_61 z_1_62 z_1_63 z_1_64 z_1_65 z_1_66 z_1_67)))
 (let (($x1208 (= z_0_58 $x1207)))
 (=> x_0_F $x1208))))
(assert
 (let (($x1211 (and z_1_58 z_1_59 z_1_60 z_1_61 z_1_62 z_1_63 z_1_64 z_1_65 z_1_66 z_1_67)))
 (let (($x1212 (= z_0_58 $x1211)))
 (=> x_0_G $x1212))))
(assert
 (=> x_0_! (= z_0_59 (not z_1_59))))
(assert
 (let (($x1222 (= z_0_59 z_1_60)))
 (=> x_0_X $x1222)))
(assert
 (let (($x1225 (or z_1_59 z_1_60 z_1_61 z_1_62 z_1_63 z_1_64 z_1_65 z_1_66 z_1_67)))
 (let (($x1226 (= z_0_59 $x1225)))
 (=> x_0_F $x1226))))
(assert
 (let (($x1229 (and z_1_59 z_1_60 z_1_61 z_1_62 z_1_63 z_1_64 z_1_65 z_1_66 z_1_67)))
 (let (($x1230 (= z_0_59 $x1229)))
 (=> x_0_G $x1230))))
(assert
 (=> x_0_! (= z_0_60 (not z_1_60))))
(assert
 (let (($x1240 (= z_0_60 z_1_61)))
 (=> x_0_X $x1240)))
(assert
 (let (($x1243 (or z_1_60 z_1_61 z_1_62 z_1_63 z_1_64 z_1_65 z_1_66 z_1_67)))
 (let (($x1244 (= z_0_60 $x1243)))
 (=> x_0_F $x1244))))
(assert
 (let (($x1247 (and z_1_60 z_1_61 z_1_62 z_1_63 z_1_64 z_1_65 z_1_66 z_1_67)))
 (let (($x1248 (= z_0_60 $x1247)))
 (=> x_0_G $x1248))))
(assert
 (=> x_0_! (= z_0_61 (not z_1_61))))
(assert
 (let (($x1258 (= z_0_61 z_1_62)))
 (=> x_0_X $x1258)))
(assert
 (let (($x1262 (= z_0_61 (or z_1_61 z_1_62 z_1_63 z_1_64 z_1_65 z_1_66 z_1_67))))
 (=> x_0_F $x1262)))
(assert
 (let (($x1266 (= z_0_61 (and z_1_61 z_1_62 z_1_63 z_1_64 z_1_65 z_1_66 z_1_67))))
 (=> x_0_G $x1266)))
(assert
 (=> x_0_! (= z_0_62 (not z_1_62))))
(assert
 (let (($x1276 (= z_0_62 z_1_63)))
 (=> x_0_X $x1276)))
(assert
 (let (($x1279 (or z_1_62 z_1_63 z_1_64 z_1_65 z_1_66 z_1_67)))
 (let (($x1280 (= z_0_62 $x1279)))
 (=> x_0_F $x1280))))
(assert
 (let (($x1284 (= z_0_62 (and z_1_62 z_1_63 z_1_64 z_1_65 z_1_66 z_1_67))))
 (=> x_0_G $x1284)))
(assert
 (=> x_0_! (= z_0_63 (not z_1_63))))
(assert
 (let (($x1294 (= z_0_63 z_1_64)))
 (=> x_0_X $x1294)))
(assert
 (=> x_0_F (= z_0_63 (or z_1_63 z_1_64 z_1_65 z_1_66 z_1_67 z_1_62))))
(assert
 (let (($x1303 (= z_0_63 (and z_1_63 z_1_64 z_1_65 z_1_66 z_1_67 z_1_62))))
 (=> x_0_G $x1303)))
(assert
 (=> x_0_! (= z_0_64 (not z_1_64))))
(assert
 (let (($x1313 (= z_0_64 z_1_65)))
 (=> x_0_X $x1313)))
(assert
 (=> x_0_F (= z_0_64 (or z_1_64 z_1_65 z_1_66 z_1_67 z_1_62 z_1_63))))
(assert
 (let (($x1322 (= z_0_64 (and z_1_64 z_1_65 z_1_66 z_1_67 z_1_62 z_1_63))))
 (=> x_0_G $x1322)))
(assert
 (=> x_0_! (= z_0_65 (not z_1_65))))
(assert
 (let (($x1332 (= z_0_65 z_1_66)))
 (=> x_0_X $x1332)))
(assert
 (=> x_0_F (= z_0_65 (or z_1_65 z_1_66 z_1_67 z_1_62 z_1_63 z_1_64))))
(assert
 (let (($x1341 (= z_0_65 (and z_1_65 z_1_66 z_1_67 z_1_62 z_1_63 z_1_64))))
 (=> x_0_G $x1341)))
(assert
 (=> x_0_! (= z_0_66 (not z_1_66))))
(assert
 (let (($x1351 (= z_0_66 z_1_67)))
 (=> x_0_X $x1351)))
(assert
 (=> x_0_F (= z_0_66 (or z_1_66 z_1_67 z_1_62 z_1_63 z_1_64 z_1_65))))
(assert
 (let (($x1360 (= z_0_66 (and z_1_66 z_1_67 z_1_62 z_1_63 z_1_64 z_1_65))))
 (=> x_0_G $x1360)))
(assert
 (=> x_0_! (= z_0_67 (not z_1_67))))
(assert
 (let (($x1370 (= z_0_67 z_1_62)))
 (=> x_0_X $x1370)))
(assert
 (=> x_0_F (= z_0_67 (or z_1_67 z_1_62 z_1_63 z_1_64 z_1_65 z_1_66))))
(assert
 (let (($x1379 (= z_0_67 (and z_1_67 z_1_62 z_1_63 z_1_64 z_1_65 z_1_66))))
 (=> x_0_G $x1379)))
(assert
 (let (($x1763 (not z_3_0)))
 (= z_1_0 $x1763)))
(assert
 (= z_1_1 (not z_3_1)))
(assert
 (= z_1_2 (not z_3_2)))
(assert
 (let (($x1769 (not z_3_3)))
 (= z_1_3 $x1769)))
(assert
 (let (($x1762 (not z_3_4)))
 (= z_1_4 $x1762)))
(assert
 (let (($x1758 (not z_3_5)))
 (= z_1_5 $x1758)))
(assert
 (= z_1_6 (not z_3_6)))
(assert
 (let (($x1745 (not z_3_7)))
 (= z_1_7 $x1745)))
(assert
 (let (($x1734 (not z_3_8)))
 (= z_1_8 $x1734)))
(assert
 (let (($x1735 (not z_3_9)))
 (= z_1_9 $x1735)))
(assert
 (= z_1_10 (not z_3_10)))
(assert
 (= z_1_11 (not z_3_11)))
(assert
 (let (($x5270 (not z_3_12)))
 (= z_1_12 $x5270)))
(assert
 (= z_1_13 (not z_3_13)))
(assert
 (= z_1_14 (not z_3_14)))
(assert
 (let (($x5285 (not z_3_15)))
 (= z_1_15 $x5285)))
(assert
 (= z_1_16 (not z_3_16)))
(assert
 (= z_1_17 (not z_3_17)))
(assert
 (let (($x5300 (not z_3_18)))
 (= z_1_18 $x5300)))
(assert
 (let (($x5305 (not z_3_19)))
 (= z_1_19 $x5305)))
(assert
 (let (($x5310 (not z_3_20)))
 (= z_1_20 $x5310)))
(assert
 (let (($x5315 (not z_3_21)))
 (= z_1_21 $x5315)))
(assert
 (= z_1_22 (not z_3_22)))
(assert
 (let (($x5325 (not z_3_23)))
 (= z_1_23 $x5325)))
(assert
 (let (($x5330 (not z_3_24)))
 (= z_1_24 $x5330)))
(assert
 (= z_1_25 (not z_3_25)))
(assert
 (= z_1_26 (not z_3_26)))
(assert
 (let (($x5345 (not z_3_27)))
 (= z_1_27 $x5345)))
(assert
 (= z_1_28 (not z_3_28)))
(assert
 (let (($x5355 (not z_3_29)))
 (= z_1_29 $x5355)))
(assert
 (let (($x5360 (not z_3_30)))
 (= z_1_30 $x5360)))
(assert
 (= z_1_31 (not z_3_31)))
(assert
 (let (($x5370 (not z_3_32)))
 (= z_1_32 $x5370)))
(assert
 (let (($x5375 (not z_3_33)))
 (= z_1_33 $x5375)))
(assert
 (= z_1_34 (not z_3_34)))
(assert
 (= z_1_35 (not z_3_35)))
(assert
 (= z_1_36 (not z_3_36)))
(assert
 (= z_1_37 (not z_3_37)))
(assert
 (= z_1_38 (not z_3_38)))
(assert
 (= z_1_39 (not z_3_39)))
(assert
 (= z_1_40 (not z_3_40)))
(assert
 (let (($x5415 (not z_3_41)))
 (= z_1_41 $x5415)))
(assert
 (= z_1_42 (not z_3_42)))
(assert
 (let (($x5425 (not z_3_43)))
 (= z_1_43 $x5425)))
(assert
 (= z_1_44 (not z_3_44)))
(assert
 (let (($x5435 (not z_3_45)))
 (= z_1_45 $x5435)))
(assert
 (= z_1_46 (not z_3_46)))
(assert
 (= z_1_47 (not z_3_47)))
(assert
 (let (($x5450 (not z_3_48)))
 (= z_1_48 $x5450)))
(assert
 (= z_1_49 (not z_3_49)))
(assert
 (= z_1_50 (not z_3_50)))
(assert
 (= z_1_51 (not z_3_51)))
(assert
 (= z_1_52 (not z_3_52)))
(assert
 (= z_1_53 (not z_3_53)))
(assert
 (= z_1_54 (not z_3_54)))
(assert
 (= z_1_55 (not z_3_55)))
(assert
 (let (($x5490 (not z_3_56)))
 (= z_1_56 $x5490)))
(assert
 (= z_1_57 (not z_3_57)))
(assert
 (= z_1_58 (not z_3_58)))
(assert
 (= z_1_59 (not z_3_59)))
(assert
 (= z_1_60 (not z_3_60)))
(assert
 (let (($x5515 (not z_3_61)))
 (= z_1_61 $x5515)))
(assert
 (let (($x5520 (not z_3_62)))
 (= z_1_62 $x5520)))
(assert
 (= z_1_63 (not z_3_63)))
(assert
 (let (($x5530 (not z_3_64)))
 (= z_1_64 $x5530)))
(assert
 (= z_1_65 (not z_3_65)))
(assert
 (= z_1_66 (not z_3_66)))
(assert
 (= z_1_67 (not z_3_67)))
(assert
 (and true true))
(assert
 (let (($x1763 (not z_3_0)))
 (=> x_3_p $x1763)))
(assert
 (=> x_3_p z_3_1))
(assert
 (=> x_3_p z_3_2))
(assert
 (let (($x1769 (not z_3_3)))
 (=> x_3_p $x1769)))
(assert
 (let (($x1762 (not z_3_4)))
 (=> x_3_p $x1762)))
(assert
 (let (($x1758 (not z_3_5)))
 (=> x_3_p $x1758)))
(assert
 (=> x_3_p z_3_6))
(assert
 (let (($x1745 (not z_3_7)))
 (=> x_3_p $x1745)))
(assert
 (let (($x1734 (not z_3_8)))
 (=> x_3_p $x1734)))
(assert
 (let (($x1735 (not z_3_9)))
 (=> x_3_p $x1735)))
(assert
 (=> x_3_p z_3_10))
(assert
 (=> x_3_p z_3_11))
(assert
 (let (($x5270 (not z_3_12)))
 (=> x_3_p $x5270)))
(assert
 (=> x_3_p z_3_13))
(assert
 (=> x_3_p z_3_14))
(assert
 (let (($x5285 (not z_3_15)))
 (=> x_3_p $x5285)))
(assert
 (=> x_3_p z_3_16))
(assert
 (=> x_3_p z_3_17))
(assert
 (let (($x5300 (not z_3_18)))
 (=> x_3_p $x5300)))
(assert
 (let (($x5305 (not z_3_19)))
 (=> x_3_p $x5305)))
(assert
 (let (($x5310 (not z_3_20)))
 (=> x_3_p $x5310)))
(assert
 (let (($x5315 (not z_3_21)))
 (=> x_3_p $x5315)))
(assert
 (=> x_3_p z_3_22))
(assert
 (let (($x5325 (not z_3_23)))
 (=> x_3_p $x5325)))
(assert
 (let (($x5330 (not z_3_24)))
 (=> x_3_p $x5330)))
(assert
 (=> x_3_p z_3_25))
(assert
 (=> x_3_p z_3_26))
(assert
 (let (($x5345 (not z_3_27)))
 (=> x_3_p $x5345)))
(assert
 (=> x_3_p z_3_28))
(assert
 (let (($x5355 (not z_3_29)))
 (=> x_3_p $x5355)))
(assert
 (let (($x5360 (not z_3_30)))
 (=> x_3_p $x5360)))
(assert
 (=> x_3_p z_3_31))
(assert
 (let (($x5370 (not z_3_32)))
 (=> x_3_p $x5370)))
(assert
 (let (($x5375 (not z_3_33)))
 (=> x_3_p $x5375)))
(assert
 (=> x_3_p z_3_34))
(assert
 (=> x_3_p z_3_35))
(assert
 (=> x_3_p z_3_36))
(assert
 (=> x_3_p z_3_37))
(assert
 (=> x_3_p z_3_38))
(assert
 (=> x_3_p z_3_39))
(assert
 (=> x_3_p z_3_40))
(assert
 (let (($x5415 (not z_3_41)))
 (=> x_3_p $x5415)))
(assert
 (=> x_3_p z_3_42))
(assert
 (let (($x5425 (not z_3_43)))
 (=> x_3_p $x5425)))
(assert
 (=> x_3_p z_3_44))
(assert
 (let (($x5435 (not z_3_45)))
 (=> x_3_p $x5435)))
(assert
 (=> x_3_p z_3_46))
(assert
 (=> x_3_p z_3_47))
(assert
 (let (($x5450 (not z_3_48)))
 (=> x_3_p $x5450)))
(assert
 (=> x_3_p z_3_49))
(assert
 (=> x_3_p z_3_50))
(assert
 (=> x_3_p z_3_51))
(assert
 (=> x_3_p z_3_52))
(assert
 (=> x_3_p z_3_53))
(assert
 (=> x_3_p z_3_54))
(assert
 (=> x_3_p z_3_55))
(assert
 (let (($x5490 (not z_3_56)))
 (=> x_3_p $x5490)))
(assert
 (=> x_3_p z_3_57))
(assert
 (=> x_3_p z_3_58))
(assert
 (=> x_3_p z_3_59))
(assert
 (=> x_3_p z_3_60))
(assert
 (let (($x5515 (not z_3_61)))
 (=> x_3_p $x5515)))
(assert
 (let (($x5520 (not z_3_62)))
 (=> x_3_p $x5520)))
(assert
 (=> x_3_p z_3_63))
(assert
 (let (($x5530 (not z_3_64)))
 (=> x_3_p $x5530)))
(assert
 (=> x_3_p z_3_65))
(assert
 (=> x_3_p z_3_66))
(assert
 (=> x_3_p z_3_67))
(assert
 (or x_3_p))
(assert
 (let (($x5567 (not x_3_->)))
 (let (($x5565 (not x_3_U)))
 (let (($x5563 (not x_3_v)))
 (let (($x5561 (not x_3_&)))
 (let (($x5559 (not x_3_X)))
 (let (($x5557 (not x_3_!)))
 (let (($x5555 (not x_3_F)))
 (let (($x5553 (not x_3_G)))
 (and $x5553 $x5555 $x5557 $x5559 $x5561 $x5563 $x5565 $x5567))))))))))
(check-sat)

